%datafile

D = 10;
T = 15;
MaxDT = 6;
MaxDL = 3;
MinDT = 4;

N1 = 4;
N2 = 4;
N3 = 3;

A = 2;

Afinidad = [| false,true,true,true,true,true,true,true,false,true,true,true,true,true,true
            | true,false,true,true,true,false,true,false,true,true,true,false,true,false,true
            | true,true,false,true,false,true,true,true,false,true,true,true,false,true,true
            | true,true,true,false,true,true,false,true,true,true,true,true,true,true,true
            | true,true,true,true,false,true,true,true,true,true,true,true,true,true,true
            | false,true,true,false,true,false,true,true,true,true,true,true,true,false,true
            | true,true,true,true,true,true,false,true,true,true,true,true,true,true,true
            | false,false,true,true,true,true,true,false,true,true,true,true,true,true,true
            | true,true,true,false,true,true,true,true,false,true,true,true,false,true,true
            | true,false,true,true,true,false,true,true,true,false,true,true,true,true,true
            | false,true,true,false,true,true,true,true,true,true,false,true,false,true,true
            | true,true,false,true,false,true,true,true,true,true,true,false,true,true,true
            | true,true,true,true,true,true,true,false,true,true,true,true,false,true,true
            | false,true,true,true,true,true,false,true,true,true,true,true,true,false,true
            | true,true,true,true,true,false,true,true,true,true,false,true,true,true,false
            |];

C = 2;
Categorias = [1, 1, 1, 1, 1, 1, 1, 1, 2, 2, 2, 2, 2, 2, 2];
MinTC = [1, 2, 1, 2, 1, 1];

DiasLibres = [| true, false, false, false, false, false, false, false, false, false
              | false, true, false, false, true, false, false, false, true, false
              | false, false, true, false, false, false, false, false, false, false
              | false, false, false, true, false, false, false, false, false, false
              | false, true, false, false, true, false, false, false, false, false
              | false, false, false, false, false, true, false, false, false, false
              | true, false, false, false, false, true, true, false, false, false
              | false, false, false, false, false, false, false, true, false, false
              | true, false, false, false, false, false, false, false, true, false
              | false, false, false, false, false, false, false, false, false, true
              | true, false, false, false, false, false, false, true, false, false
              | false, true, false, false, false, false, false, false, true, false
              | false, true, true, false, false, false, true, false, false, false
              | false, false, false, true, false, false, false, false, false, false
              | false, false, false, false, true, false, false, true, false, false
              |];
              
TurnosNoDeseados = [| L1, T2, L1, T3, L1, L1, L1, L1, L1, L1
                    | L1, L1, T1, L1, L1, L1, T2, L1, T3, T3
                    | L1, L1, L1, T2, T2, L1, L1, T3, L1, L1
                    | L1, L1, L1, L1, T1, T3, L1, L1, T3, L1
                    | L1, T2, L1, L1, L1, T2, L1, L1, L1, L1
                    | T2, L1, L1, T3, L1, L1, T1, L1, L1, L1
                    | L1, T1, L1, L1, T1, L1, L1, T2, L1, L1
                    | L1, L1, L1, L1, L1, L1, L1, L1, T1, L1
                    | L1, L1, T3, T3, L1, L1, L1, L1, L1, T2
                    | T1, L1, L1, L1, T2, L1, L1, T2, L1, L1
                    | L1, T2, L1, L1, L1, L1, T1, T3, L1, L1
                    | T3, L1, T1, L1, T3, L1, T3, L1, L1, T3
                    | L1, L1, L1, T2, L1, L1, L1, T2, T1, L1
                    | T2, T3, L1, L1, T1, T3, L1, L1, L1, L1
                    | L1, L1, L1, L1, L1, T3, L1, L1, L1, L1
                    |];